n_machines = 10;
n_resources = 12;
n_jobs = 50;
horizon = 246;
LB = 40;
n_jobs_per_resource = [2, 7, 3, 3, 7, 3, 3, 4, 2, 3, 7, 6];
duration = [3, 3, 6, 1, 4, 4, 4, 1, 9, 1, 8, 8, 3, 8, 9, 9, 3, 4, 7, 7, 2, 8, 8, 3, 5, 4, 5, 7, 2, 1, 2, 2, 8, 1, 5, 9, 1, 6, 3, 6, 5, 8, 7, 1, 4, 7, 2, 7, 8, 7]